lattice_vector      7.36844010      0.00000000      0.00000000
lattice_vector      0.00000000      9.22518630      0.00000000
lattice_vector      0.00000000      0.00000000      6.83900360
atom      6.59130000      2.36340000      6.69360000  H
atom      4.46140000      6.97600000      6.69360000  H
atom      6.59130000      2.24920000      3.27410000  H
atom      4.46140000      6.86180000      3.27410000  H
atom      0.77720000      6.86180000      0.14540000  H
atom      2.90710000      2.24920000      0.14540000  H
atom      0.77720000      6.97600000      3.56490000  H
atom      2.90710000      2.36340000      3.56490000  H
atom      5.53290000      0.79150000      1.48840000  H
atom      5.51980000      5.40410000      1.48840000  H
atom      5.53290000      3.82100000      4.90790000  H
atom      5.51980000      8.43360000      4.90790000  H
atom      1.83560000      8.43360000      5.35060000  H
atom      1.84860000      3.82100000      5.35060000  H
atom      1.83560000      5.40410000      1.93110000  H
atom      1.84860000      0.79150000      1.93110000  H
atom      1.03360000      1.54790000      5.18880000  H
atom      2.65060000      6.16050000      5.18880000  H
atom      1.03360000      3.06470000      1.76930000  H
atom      2.65060000      7.67730000      1.76930000  H
atom      6.33490000      7.67730000      1.65020000  H
atom      4.71780000      3.06470000      1.65020000  H
atom      6.33490000      6.16050000      5.06970000  H
atom      4.71780000      1.54790000      5.06970000  H
atom      6.92850000      1.32830000      6.75710000  C
atom      4.12420000      5.94090000      6.75710000  C
atom      6.92850000      3.28430000      3.33760000  C
atom      4.12420000      7.89690000      3.33760000  C
atom      0.43990000      7.89690000      0.08190000  C
atom      3.24430000      3.28430000      0.08190000  C
atom      0.43990000      5.94090000      3.50140000  C
atom      3.24430000      1.32830000      3.50140000  C
atom      6.33990000      0.45170000      0.83910000  C
atom      4.71280000      5.06420000      0.83910000  C
atom      6.33990000      4.16090000      4.25860000  C
atom      4.71280000      8.77350000      4.25860000  C
atom      1.02850000      8.77350000      5.99990000  C
atom      2.65570000      4.16090000      5.99990000  C
atom      1.02850000      5.06420000      2.58040000  C
atom      2.65570000      0.45170000      2.58040000  C
atom      0.58420000      0.87410000      5.91650000  C
atom      3.10000000      5.48670000      5.91650000  C
atom      0.58420000      3.73850000      2.49700000  C
atom      3.10000000      8.35110000      2.49700000  C
atom      6.78420000      8.35110000      0.92250000  C
atom      4.26840000      3.73850000      0.92250000  C
atom      6.78420000      5.48670000      4.34200000  C
atom      4.26840000      0.87410000      4.34200000  C

